CMD:
./solvers/bin/cadical --plain --no-reduce -t 1600 ./data/cnfs//beemprdcell2f1/beemprdcell2f1.69.cnf

c --- [ banner ] -------------------------------------------------------------
c 
c CaDiCaL SAT Solver
c Copyright (c) 2016-2024
c A. Biere, M. Fleury, N. Froleyks, K. Fazekas, F. Pollitt, T. Faller
c JKU Linz, University of Freiburg, TU Wien
c 
c Version 2.1.3 5296d3d2a9bf48c154ab2acb5e44625776d821bf
c g++ (Gentoo 12.3.1_p20230526 p2) 12.3.1 20230526 -Wall -Wextra -O3 -DNDEBUG
c Sat Aug 9 07:26:21 PDT 2025 Linux cedar2.int.cedar.computecanada.ca 5.14.0-362.24.2.el9_3.x86_64 x86_64
c 
c --- [ limit ] --------------------------------------------------------------
c 
c setting time limit to 1600 seconds real time (due to '-t 1600')
c 
c --- [ parsing input ] ------------------------------------------------------
c 
c reading DIMACS file from './data/cnfs//beemprdcell2f1/beemprdcell2f1.69.cnf'
c opening file to read './data/cnfs//beemprdcell2f1/beemprdcell2f1.69.cnf'
c found 'p cnf 58140 168530' header
c parsed 168530 clauses in 0.03 seconds process time
c 
c --- [ options ] ------------------------------------------------------------
c 
c   --compact=false                (different from default 'true')
c   --decompose=false              (different from default 'true')
c   --deduplicate=false            (different from default 'true')
c   --elim=false                   (different from default 'true')
c   --probe=false                  (different from default 'true')
c   --reduce=false                 (different from default 'true')
c   --subsume=false                (different from default 'true')
c   --ternary=false                (different from default 'true')
c   --transred=false               (different from default 'true')
c   --vivify=false                 (different from default 'true')
c 
c --- [ solving ] ------------------------------------------------------------
c 
c time measured in process time since initialization
c 
c  seconds  reductions  redundant  irredundant
c         MB    restarts       trail       variables
c          level   conflicts       glue         remaining
c 
c *  0.03 29  0 0   0    0    0  0% 0 155667 32660 56%
c {  0.04 29  0 0   0    0    0  0% 0 155667 32660 56%
c i  0.06 30 92 0   0  175  107 57% 25 155667 32623 56%
c }  0.10 30 76 0   0 1001  828 71% 12 155667 32623 56%
c [  0.10 30  0 0   0 1001  828  0% 0 155667 32623 56%
c O  0.11 30 71 0   0 1002  829 98% 1 155667 32600 56%
c i  0.11 30 67 0   0 1027  853 96% 6 155667 32599 56%
c i  0.11 30 65 0   0 1046  867 95% 6 155667 32540 56%
c ]  0.25 31 106 0   1 3002 2608 78% 11 155667 32540 56%
c {  0.25 31 76 0   1 3002 2608 71% 12 155667 32540 56%
c F  0.25 31 76 0   1 3003 2609 71% 12 155667 32540 56%
c i  0.25 31 75 0   1 3021 2624 71% 12 155667 32506 56%
c i  0.26 31 68 0   1 3282 2835 67% 10 155667 32472 56%
c i  0.28 31 66 0   1 3647 3124 65% 9 155667 32464 56%
c i  0.31 31 73 0   8 4135 3548 66% 8 155667 32305 56%
c i  0.31 31 73 0   9 4142 3553 65% 8 155667 32189 55%
c i  0.32 31 72 0  11 4332 3705 65% 8 155667 31988 55%
c i  0.34 31 70 0  24 4650 3984 65% 8 155667 31896 55%
c i  0.34 31 70 0  28 4663 3995 65% 8 155667 31661 54%
c i  0.36 31 67 0  34 5009 4289 64% 8 155667 31656 54%
c 
c  seconds  reductions  redundant  irredundant
c         MB    restarts       trail       variables
c          level   conflicts       glue         remaining
c 
c i  0.36 31 68 0  37 5104 4369 65% 8 155667 31650 54%
c i  0.37 31 68 0  37 5272 4506 65% 8 155667 31603 54%
c i  0.37 31 68 0  37 5282 4515 65% 8 155667 31163 54%
c i  0.37 31 68 0  37 5287 4519 65% 8 155667 31002 53%
c i  0.39 31 69 0  37 5668 4856 66% 7 155667 30846 53%
c i  0.39 31 69 0  37 5791 4961 66% 7 155667 30782 53%
c #  0.41 31 70 0  37 6006 5148 67% 7 155667 30730 53%
c i  0.41 32 69 0  39 6066 5205 67% 7 155667 30728 53%
c }  0.47 32 63 0  79 7003 6044 65% 7 155667 30728 53%
c [  0.47 32 106 0  79 7003 6044 78% 11 155667 30728 53%
c i  0.56 32 115 0  80 8171 7093 76% 13 155667 30721 53%
c i  0.57 32 115 0  80 8203 7119 76% 13 155667 30715 53%
c i  0.57 32 115 0  80 8214 7128 76% 13 155667 30710 53%
c i  0.57 32 115 0  80 8372 7280 76% 13 155667 30705 53%
c i  0.57 32 115 0  80 8387 7294 76% 12 155667 30700 53%
c i  0.57 32 115 0  80 8388 7294 76% 12 155667 30695 53%
c i  0.57 32 115 0  80 8389 7294 76% 12 155667 30690 53%
c i  0.57 32 115 0  80 8390 7294 76% 12 155667 30685 53%
c i  0.58 32 115 0  80 8437 7333 76% 12 155667 30680 53%
c i  0.58 32 115 0  80 8527 7419 76% 12 155667 30675 53%
c 
c  seconds   reductions  redundant   irredundant
c         MB     restarts       trail        variables
c           level   conflicts       glue          remaining
c 
c i  0.58 32 115 0  80 8557 7438 76% 12 155667 30669 53%
c i  0.58 32 115 0  80 8558 7438 76% 12 155667 30663 53%
c i  0.58 32 115 0  80 8559 7438 76% 12 155667 30657 53%
c i  0.58 32 115 0  80 8560 7438 76% 12 155667 30651 53%
... skipped 66 lines ...
c 
c  seconds  reductions    redundant  irredundant
c         MB    restarts         trail       variables
c          level    conflicts        glue         remaining
c 
c i  1.55 36 47 0 381 20906 18446 62% 7 155667 30106 52%
c W  1.61 36 47 0 395 21010 17994 62% 7 90341 30106 52%
c i  1.72 36 46 0 452 22246 19112 62% 7 90341 30101 52%
c i  1.72 36 46 0 452 22252 19116 62% 7 90341 30096 52%
c i  1.81 36 44 0 491 23252 20013 62% 7 90341 30078 52%
c i  1.84 36 44 0 528 23484 20209 61% 7 90341 30077 52%
c i  1.90 36 43 0 552 24301 20957 61% 7 90341 30076 52%
c i  1.95 37 42 0 570 25100 21653 61% 7 90341 30069 52%
c i  1.95 37 42 0 572 25109 21659 61% 7 90341 30068 52%
c i  2.06 37 41 0 612 26515 22896 61% 7 90341 30051 52%
c i  2.08 37 40 0 622 26777 23095 61% 7 90341 30050 52%
c i  2.14 37 40 0 637 27576 23797 60% 7 90341 30049 52%
c F  2.17 37 40 0 661 28013 24190 60% 7 90341 30049 52%
c i  2.24 37 38 0 682 28940 25000 60% 7 90341 30045 52%
c i  2.28 37 38 0 708 29408 25392 60% 7 90341 30038 52%
c i  2.28 37 38 0 708 29409 25392 60% 7 90341 30032 52%
c i  2.28 37 38 0 709 29410 25392 60% 7 90341 30026 52%
c i  2.28 37 38 0 709 29411 25392 60% 7 90341 30020 52%
c i  2.28 37 38 0 709 29412 25392 60% 7 90341 30014 52%
c i  2.28 37 38 0 709 29413 25392 60% 7 90341 30008 52%
c 
c  seconds  reductions    redundant  irredundant
c         MB    restarts         trail      variables
c          level    conflicts        glue        remaining
c 
c i  2.28 37 38 0 709 29416 25392 60% 7 90341 30002 52%
c i  2.28 37 38 0 709 29417 25392 60% 7 90341 29988 52%
c i  2.28 37 38 0 709 29418 25392 60% 7 90341 29983 52%
c i  2.28 37 38 0 709 29419 25392 60% 7 90341 29977 52%
c i  2.28 37 38 0 709 29420 25392 60% 7 90341 29971 52%
c i  2.28 37 38 0 709 29421 25392 60% 7 90341 29965 52%
c i  2.28 37 38 0 709 29422 25392 60% 7 90341 29958 52%
c i  2.30 37 37 0 709 29637 25553 60% 7 90341 29953 52%
c i  2.30 37 37 0 709 29638 25553 60% 7 90341 29948 52%
c i  2.30 37 37 0 709 29639 25553 60% 7 90341 29943 52%
c i  2.32 37 37 0 714 29959 25821 60% 7 90341 29930 51%
c i  2.32 37 37 0 714 29970 25826 60% 7 90341 29918 51%
c i  2.33 37 37 0 714 30095 25911 60% 7 90341 29034 50%
c i  2.33 37 37 0 714 30096 25911 60% 7 90341 29026 50%
c }  2.33 37 37 0 714 30099 25912 60% 7 90341 29006 50%
c 0  2.33 37 37 0 714 30099 25912 60% 7 90341 29006 50%
c 
c --- [ result ] -------------------------------------------------------------
c 
s UNSATISFIABLE
c 
c --- [ run-time profiling ] -------------------------------------------------
c 
c process time taken by individual solving procedures
c (percentage relative to process time for solving)
c 
c         2.30  100.00% search
c         1.50   64.99% unstable
c         0.75   32.38% stable
c         0.05    1.96% walk
c         0.03    1.20% parse
c         0.02    0.66% lucky
c         0.00    0.00% simplify
c   =================================
c         2.30   98.79% solve
c 
c last line shows process time for solving
c (percentage relative to total process time)
c 
c --- [ statistics ] ---------------------------------------------------------
c 
c chronological:              9976        33.14 %  of conflicts
c conflicts:                 30099     13074.97    per second
c decisions:                 71649     31124.24    per second
c fixed:                     29134        50.11 %  of all variables
c learned:                   28263        93.90 %  per conflict
c learned_lits:            1251191       100.00 %  learned literals
c minimized:                     0         0.00 %  learned literals
c shrunken:                  90608         7.24 %  learned literals
c minishrunken:             179068        14.31 %  learned literals
c otfs:                        326         1.08 %  of conflict
c propagations:           27988863        12.16 M  per second
c rephased:                      7      4299.86    interval
c restarts:                    714        42.16    interval
c stabilizing:                   2        33.22 %  of conflicts
c subsumed:                   1689         0.92 %  of all clauses
c strengthened:                322         0.18 %  of all clauses
c walked:                        1     30099.00    interval
c 
c seconds are measured in process time for solving
c 
c --- [ resources ] ----------------------------------------------------------
c 
c total process time since initialization:         2.33    seconds
c total real time since initialization:            2.35    seconds
c maximum resident set size of process:           36.00    MB
c 
c --- [ shutting down ] ------------------------------------------------------
c 
c exit 20
